Read MPS format model from file dat/rmp/DER_24_2048_40.mps
Reading time = 0.11 seconds
: 2072 rows, 12152 columns, 271555 nonzeros
Gurobi Optimizer version 9.0.0 build v9.0.0rc2 (linux64)
Optimize a model with 2072 rows, 12152 columns and 271555 nonzeros
Model fingerprint: 0x774b4e69
Coefficient statistics:
  Matrix range     [4e-04, 1e+01]
  Objective range  [2e-01, 1e+03]
  Bounds range     [1e+04, 1e+04]
  RHS range        [1e+00, 1e+00]
Ordering time: 0.00s

Barrier statistics:
 AA' NZ     : 4.693e+04
 Factor NZ  : 6.619e+04 (roughly 6 MBytes of memory)
 Factor Ops : 2.308e+06 (less than 1 second per iteration)
 Threads    : 1

                  Objective                Residual
Iter       Primal          Dual         Primal    Dual     Compl     Time
   0   1.87958805e+08 -1.76175716e+07  1.87e+06 1.29e-02  2.21e+05     0s
   1   6.57248696e+06 -3.95386837e+06  6.17e+04 1.82e-12  7.60e+03     0s
   2   2.36381050e+05 -2.31171268e+06  2.17e+03 1.82e-12  4.40e+02     0s
   3   3.38037520e+03 -6.13672996e+05  1.69e-11 1.82e-12  5.07e+01     0s
   4   2.99016902e+03  2.06675275e+03  1.92e-11 3.64e-12  7.58e-02     0s
   5   2.95288093e+03  2.74090677e+03  1.76e-11 3.64e-12  1.74e-02     0s
   6   2.92382187e+03  2.87998936e+03  1.96e-11 5.46e-12  3.60e-03     0s
   7   2.91132889e+03  2.89877321e+03  3.75e-11 3.64e-12  1.03e-03     0s
   8   2.90654068e+03  2.90196245e+03  3.39e-11 1.82e-12  3.76e-04     0s
   9   2.90485738e+03  2.90375676e+03  5.61e-11 3.64e-12  9.04e-05     0s
  10   2.90450043e+03  2.90414583e+03  5.71e-11 1.82e-12  2.91e-05     0s
  11   2.90441185e+03  2.90425887e+03  8.67e-11 3.64e-12  1.26e-05     0s
  12   2.90439884e+03  2.90429310e+03  5.10e-11 1.82e-12  8.68e-06     0s
  13   2.90439233e+03  2.90431388e+03  7.59e-11 1.82e-12  6.44e-06     0s
  14   2.90438516e+03  2.90432048e+03  8.66e-11 1.82e-12  5.31e-06     0s
  15   2.90437983e+03  2.90433171e+03  1.26e-10 1.82e-12  3.95e-06     0s
  16   2.90437392e+03  2.90433830e+03  1.44e-10 1.82e-12  2.92e-06     0s
  17   2.90437177e+03  2.90434304e+03  1.22e-10 1.82e-12  2.36e-06     0s
  18   2.90437005e+03  2.90434584e+03  1.36e-10 1.82e-12  1.99e-06     0s
  19   2.90436480e+03  2.90434841e+03  2.46e-10 3.64e-12  1.35e-06     0s
  20   2.90436133e+03  2.90435129e+03  5.99e-10 1.82e-12  8.25e-07     0s
  21   2.90435896e+03  2.90435362e+03  7.95e-10 1.82e-12  4.39e-07     0s
  22   2.90435852e+03  2.90435487e+03  5.14e-10 1.82e-12  3.00e-07     0s
  23   2.90435759e+03  2.90435561e+03  8.77e-10 1.82e-12  1.63e-07     0s
  24   2.90435757e+03  2.90435587e+03  8.53e-10 1.82e-12  1.40e-07     0s
  25   2.90435739e+03  2.90435622e+03  7.01e-10 1.82e-12  9.60e-08     0s
  26   2.90435735e+03  2.90435628e+03  7.09e-10 1.82e-12  8.79e-08     0s
  27   2.90435731e+03  2.90435630e+03  6.81e-10 1.82e-12  8.32e-08     0s
  28   2.90435725e+03  2.90435638e+03  5.48e-10 3.64e-12  7.12e-08     0s
  29   2.90435718e+03  2.90435657e+03  5.15e-10 1.82e-12  5.02e-08     0s
  30   2.90435708e+03  2.90435666e+03  6.46e-10 1.82e-12  3.45e-08     0s
  31   2.90435695e+03  2.90435669e+03  2.95e-09 1.82e-12  2.17e-08     0s
  32   2.90435692e+03  2.90435678e+03  5.35e-09 3.64e-12  1.15e-08     0s
  33   2.90435691e+03  2.90435679e+03  4.48e-09 3.64e-12  9.94e-09     0s
  34   2.90435687e+03  2.90435680e+03  2.81e-09 3.64e-12  6.44e-09     0s
  35   2.90435687e+03  2.90435682e+03  2.39e-09 1.82e-12  3.98e-09     0s
  36   2.90435685e+03  2.90435685e+03  2.15e-08 1.82e-12  2.44e-10     0s

Barrier solved model in 36 iterations and 0.40 seconds
Optimal objective 2.90435685e+03

Solve time: 0.39622342
Barrier iterations: 36
